20
587 233 220
41 39 26
110 40 34
94 77 52
119 96 71
67 63 47
61 43 31
72 53 35
64 38 38
110 71 45
73 71 52
95 92 55
86 74 31
99 62 52
81 44 31
113 94 70
109 100 28
63 34 30
111 43 28
48 35 28
97 53 38
thpack7_36